10  5
 3 11  0 10  2 16  1 10  4 10  12 151  10
 1  7  3 11  2 14  4  4  0  3  26 143  10
 3  8  4  9  2 13  1  7  0  7  16 150   5
 4  3  1  9  2  8  0  6  3 11   0 152  10
 1  7  0 10  2 12  4 10  3 11  25 175  10
 1  7  4  3  2  8  3  6  0 11  23 146  10
 1  7  4  7  2  8  0  8  3  4  26 163  10
 4 11  3  3  2 16  1 10  0  6  10 160   5
 0 10  3  6  2 10  1  9  4  4  34 160   5
 3 11  0  4  2 15  1  7  4  7  12 160  10
